local_stuff/loop_inv_stuff/loop_inv/repo/z3/133.out
STDOUT:
sat
(
  (define-fun inv ((x!0 Int) (x!1 Int)) Bool
    (<= (+ x!1 (* (- 1) x!0)) 0))
)


STDERR:
